row=9;
column=9;
Board=[|0,4,0,0,2,0,1,8,0|6,8,1,2,4,0,7,3,5|0,0,2,0,0,5,6,1,0|8,0,7,0,5,6,4,9,2|0,5,4,0,7,0,9,2,0|4,2,0,8,9,0,0,7,3|0,6,3,0,0,7,2,5,0|2,9,0,0,3,4,8,0,1|7,1,8,5,0,2,3,0,9|];
Region=[|1,1,1,2,2,2,2,3,3|1,1,1,5,2,2,2,3,3|1,1,1,5,2,2,3,3,3|4,4,4,5,5,5,6,3,3|4,4,5,5,5,5,6,6,6|4,4,4,7,8,6,6,6,6|4,7,7,7,8,9,9,9,6|7,7,7,8,8,8,9,9,9|7,7,8,8,8,8,9,9,9|];
OE=[|1,0,1,0,0,1,1,0,1|0,0,1,0,0,1,1,1,1|1,1,0,1,0,1,0,1,0|0,1,1,1,1,0,0,1,0|1,1,0,1,1,0,1,0,0|0,0,0,0,1,1,1,1,1|1,0,1,0,1,1,0,1,0|0,1,1,1,1,0,0,0,1|1,1,0,1,0,0,1,0,1|];
